20  5
  0  79  1  2  2  20  3  99  4  57
  0  42  1  8  2  96  3  67  4  38
  0  68  1  56  2  52  3  22  4  51
  0  53  1  12  2  11  3  71  4  98
  0  10  1  61  2  7  3  91  4  16
  0  38  1  41  2  63  3  77  4  19
  0  26  1  45  2  33  3  97  4  8
  0  30  1  99  2  64  3  45  4  27
  0  94  1  62  2  17  3  13  4  80
  0  58  1  86  2  38  3  45  4  74
  0  84  1  36  2  44  3  65  4  16
  0  52  1  80  2  45  3  8  4  82
  0  98  1  92  2  56  3  86  4  98
  0  89  1  33  2  32  3  19  4  69
  0  59  1  55  2  46  3  89  4  74
  0  77  1  22  2  47  3  30  4  94
  0  83  1  93  2  2  3  22  4  54
  0  39  1  9  2  81  3  49  4  38
  0  66  1  55  2  88  3  88  4  13
  0  29  1  26  2  11  3  1  4  19
